NCORE = 2
# output options
LWAVE  = .TRUE. # write or don't write WAVECAR
LCHARG = .FALSE. # write or don't write CHG and CHGCAR
LELF   = .FALSE. # write ELF

#meta GGA
#LASPH = .TRUE.
#METAGGA = R2SCAN
#LMAXMIX = 4

# ionic relaxation
NSW = 0        # number of ionic steps
IBRION = -1       # 2=conjucate gradient, 1=Newton like
#ISIF = 3         # 3=relax everything, 2=relax ions only, 4=keep volume fixed

# precision parameters
EDIFF = 1E-8     # 1E-3 very low precision for pre-relaxation, use 1E-5 next
#EDIFFG = 1E-7    # usually: 10 * EDIFF
PREC = high     # precision low, med, high, accurate
#NPAR = 1
#NBANDS = 200


# electronic relaxation
ENCUT = 800      # cutoff energy
#PSTRESS = 150



